p wcnf 188 221 222 
1 63 145 0 
1 53 -148 0 
1 -113 181 0 
1 -76 53 0 
1 -154 -86 0 
1 101 53 0 
1 32 94 0 
1 -30 81 0 
1 102 -142 0 
1 -162 67 0 
1 -176 29 0 
1 -11 28 0 
1 -40 4 0 
1 87 -145 0 
1 168 -119 0 
1 -77 -31 0 
1 -116 21 0 
1 32 147 0 
1 -130 182 0 
1 -32 -67 0 
1 84 -183 0 
1 25 -176 0 
1 -187 -28 0 
1 96 -172 0 
1 132 -85 0 
1 102 -45 0 
1 6 114 0 
1 -187 -133 0 
1 -39 -46 0 
1 1 -60 0 
1 155 14 0 
1 -3 165 0 
1 -43 171 0 
1 -23 -102 0 
1 97 114 0 
1 -70 182 0 
1 123 126 0 
1 -64 12 0 
1 -90 72 0 
1 115 -91 0 
1 11 172 0 
1 -7 106 0 
1 4 -103 0 
1 153 45 0 
1 141 -164 0 
1 -74 60 0 
1 -105 67 0 
1 -53 -163 0 
1 17 13 0 
1 67 -46 0 
1 -56 122 0 
1 126 -2 0 
1 166 -164 0 
1 149 80 0 
1 -49 99 0 
1 162 -157 0 
1 14 62 0 
1 -48 132 0 
1 49 -179 0 
1 166 -135 0 
1 45 -128 0 
1 57 21 0 
1 -48 -40 0 
1 -134 164 0 
1 -106 -130 0 
1 70 -155 0 
1 -183 -76 0 
1 167 -73 0 
1 -52 -141 0 
1 173 -148 0 
1 140 100 0 
1 -153 -156 0 
1 -51 -69 0 
1 -2 165 0 
1 102 -154 0 
1 40 -55 0 
1 122 154 0 
1 -22 3 0 
1 -171 -20 0 
1 -178 -66 0 
1 -100 -160 0 
1 84 147 0 
1 -159 -73 0 
1 57 -7 0 
1 43 -50 0 
1 117 -96 0 
1 -20 -122 0 
1 -90 153 0 
1 44 2 0 
1 -113 128 0 
1 126 3 0 
1 51 27 0 
1 128 -138 0 
1 -165 -25 0 
1 -150 -79 0 
1 -115 -186 0 
1 -174 84 0 
1 82 72 0 
1 15 -134 0 
1 184 133 0 
1 99 -111 0 
1 73 33 0 
1 -181 -104 0 
1 -71 -131 0 
1 60 -139 0 
1 -9 -47 0 
1 170 48 0 
1 134 22 0 
1 142 71 0 
1 187 152 0 
1 78 19 0 
1 -30 -166 0 
1 158 78 0 
1 182 98 0 
1 -180 158 0 
1 -121 -36 0 
1 59 149 0 
1 -182 127 0 
1 -8 -170 0 
1 -118 21 0 
1 119 139 0 
1 -97 -52 0 
1 -141 119 0 
1 -89 184 0 
1 75 28 0 
1 -176 -107 0 
1 -27 94 0 
1 -115 -155 0 
1 93 130 0 
1 -181 -52 0 
1 -153 73 0 
1 1 -72 0 
1 94 128 0 
1 35 -99 0 
1 177 -167 0 
1 -183 153 0 
1 174 9 0 
1 -139 -79 0 
1 -78 144 0 
1 35 -1 0 
1 177 -118 0 
1 100 121 0 
1 -128 -24 0 
1 -146 15 0 
1 18 42 0 
1 67 -165 0 
1 153 -33 0 
1 -146 -91 0 
1 87 -28 0 
1 -71 -53 0 
1 127 134 0 
1 148 82 0 
1 129 -170 0 
1 69 67 0 
1 53 138 0 
1 87 160 0 
1 81 -113 0 
1 -130 93 0 
1 61 52 0 
1 -114 -101 0 
1 -155 103 0 
1 -141 161 0 
1 118 -77 0 
1 29 153 0 
1 18 48 0 
1 -168 158 0 
1 -167 -168 0 
1 13 128 0 
1 74 26 0 
1 -133 151 0 
1 142 -178 0 
1 -18 -49 0 
1 -150 113 0 
1 -51 -70 0 
1 181 -145 0 
1 -101 -112 0 
1 -92 114 0 
1 -187 -33 0 
1 -96 95 0 
1 -179 -29 0 
1 -177 -73 0 
1 -63 68 0 
1 32 93 0 
1 -83 -128 0 
1 82 -149 0 
1 -93 -136 0 
1 130 126 0 
1 177 16 0 
1 -110 91 0 
1 -106 71 0 
1 -180 -96 0 
1 -5 28 0 
1 65 68 0 
1 -137 116 0 
1 -180 -178 0 
1 -12 -64 0 
1 -46 170 0 
1 -145 -166 0 
1 -118 47 0 
1 128 -17 0 
1 -61 83 0 
1 -116 128 0 
1 -171 -10 0 
1 -107 -78 0 
1 126 77 0 
1 46 -62 0 
1 77 -176 0 
1 124 -145 0 
1 178 109 0 
1 185 -145 0 
1 168 171 0 
1 -186 -15 0 
1 31 99 0 
1 175 140 0 
1 -115 104 0 
1 86 -127 0 
1 -176 144 0 
1 -140 -35 0 
1 91 86 0 
1 24 -35 0 
1 -178 36 0 
